c Standarized MaxSat Instance
c{
c "sha1sum": "c397c10221fda204868bfcf3c9fe4ac26b3967d5",
c "nvars": 150,
c "ncls": 3726,
c "total_lits": 7302,
c "nhards": 3576,
c "nhard_nlits": 7152,
c "nhard_len_stats":
c    { "min": 2,
c      "max": 2,
c      "ave": 2.0000,
c      "stddev": 0.0000 },
c "nsofts": 150,
c "nsoft_nlits": 150,
c "nsoft_len_stats":
c    { "min": 1,
c      "max": 1,
c      "ave": 1.0000,
c      "stddev": 0.0000 },
c "nsoft_wts": 1,
c "soft_wt_stats":
c    { "min": 1,
c      "max": 1,
c      "ave": 1.0000,
c      "stddev": 0.0000 }
c}
c------------------------------------------------------------
c Generated after 1 tries
c Graph with 150 nodes and 7599 edges, Max edges:11175
c PSEUDOBOOLEAN 150
1 -1 0
1 -2 0
1 -3 0
1 -4 0
1 -5 0
1 -6 0
1 -7 0
1 -8 0
1 -9 0
1 -10 0
1 -11 0
1 -12 0
1 -13 0
1 -14 0
1 -15 0
1 -16 0
1 -17 0
1 -18 0
1 -19 0
1 -20 0
1 -21 0
1 -22 0
1 -23 0
1 -24 0
1 -25 0
1 -26 0
1 -27 0
1 -28 0
1 -29 0
1 -30 0
1 -31 0
1 -32 0
1 -33 0
1 -34 0
1 -35 0
1 -36 0
1 -37 0
1 -38 0
1 -39 0
1 -40 0
1 -41 0
1 -42 0
1 -43 0
1 -44 0
1 -45 0
1 -46 0
1 -47 0
1 -48 0
1 -49 0
1 -50 0
1 -51 0
1 -52 0
1 -53 0
1 -54 0
1 -55 0
1 -56 0
1 -57 0
1 -58 0
1 -59 0
1 -60 0
1 -61 0
1 -62 0
1 -63 0
1 -64 0
1 -65 0
1 -66 0
1 -67 0
1 -68 0
1 -69 0
1 -70 0
1 -71 0
1 -72 0
1 -73 0
1 -74 0
1 -75 0
1 -76 0
1 -77 0
1 -78 0
1 -79 0
1 -80 0
1 -81 0
1 -82 0
1 -83 0
1 -84 0
1 -85 0
1 -86 0
1 -87 0
1 -88 0
1 -89 0
1 -90 0
1 -91 0
1 -92 0
1 -93 0
1 -94 0
1 -95 0
1 -96 0
1 -97 0
1 -98 0
1 -99 0
1 -100 0
1 -101 0
1 -102 0
1 -103 0
1 -104 0
1 -105 0
1 -106 0
1 -107 0
1 -108 0
1 -109 0
1 -110 0
1 -111 0
1 -112 0
1 -113 0
1 -114 0
1 -115 0
1 -116 0
1 -117 0
1 -118 0
1 -119 0
1 -120 0
1 -121 0
1 -122 0
1 -123 0
1 -124 0
1 -125 0
1 -126 0
1 -127 0
1 -128 0
1 -129 0
1 -130 0
1 -131 0
1 -132 0
1 -133 0
1 -134 0
1 -135 0
1 -136 0
1 -137 0
1 -138 0
1 -139 0
1 -140 0
1 -141 0
1 -142 0
1 -143 0
1 -144 0
1 -145 0
1 -146 0
1 -147 0
1 -148 0
1 -149 0
1 -150 0
h 1 2 0
h 1 18 0
h 1 20 0
h 1 21 0
h 1 24 0
h 1 31 0
h 1 35 0
h 1 37 0
h 1 43 0
h 1 46 0
h 1 48 0
h 1 49 0
h 1 51 0
h 1 53 0
h 1 57 0
h 1 59 0
h 1 60 0
h 1 66 0
h 1 70 0
h 1 72 0
h 1 79 0
h 1 80 0
h 1 82 0
h 1 84 0
h 1 85 0
h 1 88 0
h 1 93 0
h 1 96 0
h 1 97 0
h 1 99 0
h 1 101 0
h 1 102 0
h 1 103 0
h 1 105 0
h 1 106 0
h 1 107 0
h 1 110 0
h 1 117 0
h 1 118 0
h 1 120 0
h 1 126 0
h 1 128 0
h 1 129 0
h 1 130 0
h 1 132 0
h 1 137 0
h 1 139 0
h 1 141 0
h 2 5 0
h 2 11 0
h 2 12 0
h 2 22 0
h 2 23 0
h 2 25 0
h 2 29 0
h 2 32 0
h 2 33 0
h 2 35 0
h 2 36 0
h 2 40 0
h 2 41 0
h 2 47 0
h 2 51 0
h 2 57 0
h 2 64 0
h 2 65 0
h 2 68 0
h 2 74 0
h 2 75 0
h 2 78 0
h 2 79 0
h 2 80 0
h 2 83 0
h 2 85 0
h 2 90 0
h 2 92 0
h 2 95 0
h 2 98 0
h 2 100 0
h 2 104 0
h 2 106 0
h 2 111 0
h 2 116 0
h 2 117 0
h 2 123 0
h 2 126 0
h 2 127 0
h 2 131 0
h 2 135 0
h 2 136 0
h 2 143 0
h 2 147 0
h 2 149 0
h 3 5 0
h 3 9 0
h 3 11 0
h 3 12 0
h 3 13 0
h 3 16 0
h 3 18 0
h 3 25 0
h 3 26 0
h 3 31 0
h 3 34 0
h 3 35 0
h 3 40 0
h 3 43 0
h 3 47 0
h 3 48 0
h 3 49 0
h 3 51 0
h 3 58 0
h 3 61 0
h 3 63 0
h 3 64 0
h 3 71 0
h 3 73 0
h 3 78 0
h 3 79 0
h 3 82 0
h 3 83 0
h 3 94 0
h 3 98 0
h 3 99 0
h 3 103 0
h 3 104 0
h 3 105 0
h 3 106 0
h 3 110 0
h 3 111 0
h 3 113 0
h 3 117 0
h 3 119 0
h 3 120 0
h 3 121 0
h 3 127 0
h 3 129 0
h 3 135 0
h 3 140 0
h 3 141 0
h 3 143 0
h 3 146 0
h 3 150 0
h 4 5 0
h 4 10 0
h 4 18 0
h 4 24 0
h 4 27 0
h 4 33 0
h 4 40 0
h 4 43 0
h 4 48 0
h 4 51 0
h 4 57 0
h 4 65 0
h 4 66 0
h 4 72 0
h 4 76 0
h 4 78 0
h 4 84 0
h 4 87 0
h 4 92 0
h 4 93 0
h 4 95 0
h 4 97 0
h 4 98 0
h 4 100 0
h 4 103 0
h 4 113 0
h 4 116 0
h 4 117 0
h 4 118 0
h 4 119 0
h 4 122 0
h 4 123 0
h 4 126 0
h 4 127 0
h 4 128 0
h 4 130 0
h 4 135 0
h 4 137 0
h 4 140 0
h 4 144 0
h 4 146 0
h 4 147 0
h 4 149 0
h 5 8 0
h 5 9 0
h 5 10 0
h 5 14 0
h 5 17 0
h 5 18 0
h 5 23 0
h 5 26 0
h 5 28 0
h 5 35 0
h 5 36 0
h 5 37 0
h 5 40 0
h 5 42 0
h 5 46 0
h 5 47 0
h 5 48 0
h 5 55 0
h 5 56 0
h 5 58 0
h 5 60 0
h 5 61 0
h 5 63 0
h 5 67 0
h 5 70 0
h 5 71 0
h 5 72 0
h 5 74 0
h 5 77 0
h 5 78 0
h 5 83 0
h 5 84 0
h 5 91 0
h 5 95 0
h 5 97 0
h 5 102 0
h 5 105 0
h 5 107 0
h 5 110 0
h 5 111 0
h 5 112 0
h 5 118 0
h 5 120 0
h 5 123 0
h 5 128 0
h 5 134 0
h 5 139 0
h 5 140 0
h 5 143 0
h 5 144 0
h 5 146 0
h 5 150 0
h 6 7 0
h 6 8 0
h 6 9 0
h 6 10 0
h 6 15 0
h 6 18 0
h 6 19 0
h 6 20 0
h 6 22 0
h 6 23 0
h 6 31 0
h 6 34 0
h 6 37 0
h 6 42 0
h 6 45 0
h 6 46 0
h 6 47 0
h 6 49 0
h 6 52 0
h 6 53 0
h 6 55 0
h 6 61 0
h 6 62 0
h 6 65 0
h 6 66 0
h 6 69 0
h 6 72 0
h 6 75 0
h 6 78 0
h 6 83 0
h 6 84 0
h 6 86 0
h 6 87 0
h 6 89 0
h 6 90 0
h 6 97 0
h 6 98 0
h 6 99 0
h 6 107 0
h 6 112 0
h 6 115 0
h 6 117 0
h 6 131 0
h 6 137 0
h 6 140 0
h 6 141 0
h 6 142 0
h 6 149 0
h 7 9 0
h 7 10 0
h 7 11 0
h 7 16 0
h 7 18 0
h 7 19 0
h 7 28 0
h 7 30 0
h 7 32 0
h 7 34 0
h 7 37 0
h 7 40 0
h 7 42 0
h 7 46 0
h 7 49 0
h 7 53 0
h 7 55 0
h 7 59 0
h 7 61 0
h 7 66 0
h 7 68 0
h 7 70 0
h 7 71 0
h 7 72 0
h 7 73 0
h 7 75 0
h 7 79 0
h 7 80 0
h 7 81 0
h 7 82 0
h 7 84 0
h 7 85 0
h 7 86 0
h 7 91 0
h 7 95 0
h 7 96 0
h 7 98 0
h 7 103 0
h 7 106 0
h 7 118 0
h 7 119 0
h 7 125 0
h 7 126 0
h 7 129 0
h 7 131 0
h 7 133 0
h 7 135 0
h 7 139 0
h 7 145 0
h 7 146 0
h 7 148 0
h 8 11 0
h 8 14 0
h 8 18 0
h 8 20 0
h 8 21 0
h 8 22 0
h 8 26 0
h 8 27 0
h 8 29 0
h 8 32 0
h 8 34 0
h 8 36 0
h 8 38 0
h 8 49 0
h 8 54 0
h 8 56 0
h 8 79 0
h 8 82 0
h 8 83 0
h 8 84 0
h 8 87 0
h 8 90 0
h 8 92 0
h 8 96 0
h 8 97 0
h 8 102 0
h 8 108 0
h 8 110 0
h 8 113 0
h 8 115 0
h 8 118 0
h 8 129 0
h 8 133 0
h 8 137 0
h 8 138 0
h 8 140 0
h 8 142 0
h 8 145 0
h 8 147 0
h 8 149 0
h 8 150 0
h 9 13 0
h 9 14 0
h 9 16 0
h 9 20 0
h 9 21 0
h 9 23 0
h 9 24 0
h 9 28 0
h 9 32 0
h 9 37 0
h 9 38 0
h 9 39 0
h 9 41 0
h 9 42 0
h 9 47 0
h 9 51 0
h 9 52 0
h 9 54 0
h 9 57 0
h 9 58 0
h 9 60 0
h 9 61 0
h 9 66 0
h 9 67 0
h 9 69 0
h 9 70 0
h 9 75 0
h 9 76 0
h 9 96 0
h 9 97 0
h 9 99 0
h 9 108 0
h 9 110 0
h 9 111 0
h 9 112 0
h 9 115 0
h 9 118 0
h 9 119 0
h 9 123 0
h 9 124 0
h 9 128 0
h 9 129 0
h 9 131 0
h 9 132 0
h 9 137 0
h 9 138 0
h 9 144 0
h 9 150 0
h 10 12 0
h 10 15 0
h 10 16 0
h 10 21 0
h 10 22 0
h 10 25 0
h 10 26 0
h 10 29 0
h 10 35 0
h 10 42 0
h 10 44 0
h 10 46 0
h 10 47 0
h 10 48 0
h 10 57 0
h 10 58 0
h 10 63 0
h 10 65 0
h 10 69 0
h 10 72 0
h 10 73 0
h 10 75 0
h 10 77 0
h 10 79 0
h 10 81 0
h 10 84 0
h 10 94 0
h 10 96 0
h 10 100 0
h 10 101 0
h 10 105 0
h 10 106 0
h 10 107 0
h 10 108 0
h 10 114 0
h 10 119 0
h 10 122 0
h 10 126 0
h 10 127 0
h 10 129 0
h 10 130 0
h 10 133 0
h 10 136 0
h 10 140 0
h 10 142 0
h 10 143 0
h 10 148 0
h 11 14 0
h 11 16 0
h 11 18 0
h 11 20 0
h 11 23 0
h 11 29 0
h 11 31 0
h 11 32 0
h 11 33 0
h 11 36 0
h 11 42 0
h 11 43 0
h 11 44 0
h 11 46 0
h 11 47 0
h 11 50 0
h 11 52 0
h 11 57 0
h 11 60 0
h 11 63 0
h 11 66 0
h 11 68 0
h 11 73 0
h 11 77 0
h 11 91 0
h 11 93 0
h 11 99 0
h 11 103 0
h 11 106 0
h 11 111 0
h 11 113 0
h 11 116 0
h 11 120 0
h 11 123 0
h 11 126 0
h 11 128 0
h 11 131 0
h 11 134 0
h 11 137 0
h 11 149 0
h 12 20 0
h 12 23 0
h 12 24 0
h 12 25 0
h 12 26 0
h 12 33 0
h 12 34 0
h 12 35 0
h 12 45 0
h 12 48 0
h 12 49 0
h 12 52 0
h 12 54 0
h 12 55 0
h 12 57 0
h 12 58 0
h 12 60 0
h 12 62 0
h 12 65 0
h 12 67 0
h 12 69 0
h 12 73 0
h 12 78 0
h 12 81 0
h 12 82 0
h 12 83 0
h 12 85 0
h 12 86 0
h 12 103 0
h 12 104 0
h 12 105 0
h 12 113 0
h 12 116 0
h 12 117 0
h 12 118 0
h 12 120 0
h 12 121 0
h 12 124 0
h 12 125 0
h 12 128 0
h 12 130 0
h 12 131 0
h 12 133 0
h 12 138 0
h 12 141 0
h 12 147 0
h 12 148 0
h 12 149 0
h 13 15 0
h 13 22 0
h 13 28 0
h 13 29 0
h 13 30 0
h 13 36 0
h 13 38 0
h 13 41 0
h 13 46 0
h 13 63 0
h 13 67 0
h 13 69 0
h 13 73 0
h 13 74 0
h 13 75 0
h 13 76 0
h 13 80 0
h 13 81 0
h 13 82 0
h 13 83 0
h 13 84 0
h 13 90 0
h 13 96 0
h 13 97 0
h 13 98 0
h 13 100 0
h 13 101 0
h 13 102 0
h 13 110 0
h 13 112 0
h 13 114 0
h 13 118 0
h 13 132 0
h 13 133 0
h 13 135 0
h 13 136 0
h 13 139 0
h 13 140 0
h 13 146 0
h 13 150 0
h 14 17 0
h 14 18 0
h 14 19 0
h 14 21 0
h 14 23 0
h 14 27 0
h 14 28 0
h 14 29 0
h 14 35 0
h 14 38 0
h 14 41 0
h 14 44 0
h 14 47 0
h 14 48 0
h 14 49 0
h 14 50 0
h 14 52 0
h 14 54 0
h 14 55 0
h 14 59 0
h 14 67 0
h 14 72 0
h 14 74 0
h 14 78 0
h 14 79 0
h 14 80 0
h 14 84 0
h 14 85 0
h 14 88 0
h 14 89 0
h 14 103 0
h 14 105 0
h 14 106 0
h 14 107 0
h 14 110 0
h 14 118 0
h 14 121 0
h 14 123 0
h 14 124 0
h 14 125 0
h 14 126 0
h 14 128 0
h 14 129 0
h 14 131 0
h 14 134 0
h 14 136 0
h 14 141 0
h 14 145 0
h 14 146 0
h 14 147 0
h 15 20 0
h 15 23 0
h 15 24 0
h 15 31 0
h 15 35 0
h 15 36 0
h 15 39 0
h 15 41 0
h 15 45 0
h 15 46 0
h 15 47 0
h 15 62 0
h 15 63 0
h 15 64 0
h 15 65 0
h 15 68 0
h 15 72 0
h 15 73 0
h 15 75 0
h 15 76 0
h 15 79 0
h 15 97 0
h 15 98 0
h 15 101 0
h 15 104 0
h 15 108 0
h 15 109 0
h 15 113 0
h 15 116 0
h 15 118 0
h 15 119 0
h 15 122 0
h 15 123 0
h 15 125 0
h 15 127 0
h 15 128 0
h 15 129 0
h 15 131 0
h 15 132 0
h 15 135 0
h 15 136 0
h 15 137 0
h 15 138 0
h 15 141 0
h 15 145 0
h 16 18 0
h 16 21 0
h 16 22 0
h 16 26 0
h 16 31 0
h 16 34 0
h 16 37 0
h 16 40 0
h 16 42 0
h 16 48 0
h 16 49 0
h 16 51 0
h 16 57 0
h 16 58 0
h 16 62 0
h 16 70 0
h 16 71 0
h 16 73 0
h 16 74 0
h 16 75 0
h 16 77 0
h 16 79 0
h 16 80 0
h 16 84 0
h 16 92 0
h 16 96 0
h 16 98 0
h 16 103 0
h 16 113 0
h 16 115 0
h 16 124 0
h 16 126 0
h 16 127 0
h 16 129 0
h 16 136 0
h 16 138 0
h 16 140 0
h 16 141 0
h 16 142 0
h 16 145 0
h 16 146 0
h 17 20 0
h 17 22 0
h 17 23 0
h 17 25 0
h 17 26 0
h 17 28 0
h 17 31 0
h 17 33 0
h 17 35 0
h 17 38 0
h 17 41 0
h 17 47 0
h 17 48 0
h 17 54 0
h 17 55 0
h 17 63 0
h 17 66 0
h 17 71 0
h 17 73 0
h 17 75 0
h 17 77 0
h 17 79 0
h 17 83 0
h 17 88 0
h 17 94 0
h 17 96 0
h 17 97 0
h 17 105 0
h 17 108 0
h 17 121 0
h 17 122 0
h 17 125 0
h 17 127 0
h 17 134 0
h 17 137 0
h 17 138 0
h 17 143 0
h 17 145 0
h 17 146 0
h 17 148 0
h 18 20 0
h 18 23 0
h 18 24 0
h 18 26 0
h 18 27 0
h 18 31 0
h 18 35 0
h 18 39 0
h 18 40 0
h 18 44 0
h 18 45 0
h 18 52 0
h 18 54 0
h 18 60 0
h 18 66 0
h 18 70 0
h 18 72 0
h 18 76 0
h 18 78 0
h 18 79 0
h 18 83 0
h 18 84 0
h 18 89 0
h 18 91 0
h 18 93 0
h 18 94 0
h 18 96 0
h 18 103 0
h 18 111 0
h 18 112 0
h 18 115 0
h 18 121 0
h 18 124 0
h 18 125 0
h 18 126 0
h 18 128 0
h 18 129 0
h 18 132 0
h 18 138 0
h 18 141 0
h 18 144 0
h 19 22 0
h 19 23 0
h 19 24 0
h 19 25 0
h 19 28 0
h 19 29 0
h 19 32 0
h 19 36 0
h 19 39 0
h 19 47 0
h 19 49 0
h 19 54 0
h 19 60 0
h 19 62 0
h 19 65 0
h 19 68 0
h 19 79 0
h 19 80 0
h 19 83 0
h 19 84 0
h 19 85 0
h 19 86 0
h 19 88 0
h 19 89 0
h 19 97 0
h 19 98 0
h 19 104 0
h 19 106 0
h 19 108 0
h 19 122 0
h 19 132 0
h 19 136 0
h 19 137 0
h 19 139 0
h 19 141 0
h 19 145 0
h 19 149 0
h 20 21 0
h 20 22 0
h 20 23 0
h 20 26 0
h 20 33 0
h 20 34 0
h 20 35 0
h 20 37 0
h 20 38 0
h 20 41 0
h 20 43 0
h 20 46 0
h 20 49 0
h 20 50 0
h 20 51 0
h 20 52 0
h 20 53 0
h 20 54 0
h 20 61 0
h 20 63 0
h 20 64 0
h 20 67 0
h 20 77 0
h 20 83 0
h 20 87 0
h 20 91 0
h 20 93 0
h 20 95 0
h 20 100 0
h 20 104 0
h 20 105 0
h 20 107 0
h 20 109 0
h 20 112 0
h 20 116 0
h 20 125 0
h 20 127 0
h 20 131 0
h 20 132 0
h 20 134 0
h 20 136 0
h 20 138 0
h 20 144 0
h 21 22 0
h 21 24 0
h 21 25 0
h 21 30 0
h 21 32 0
h 21 36 0
h 21 41 0
h 21 42 0
h 21 47 0
h 21 50 0
h 21 51 0
h 21 52 0
h 21 55 0
h 21 56 0
h 21 57 0
h 21 58 0
h 21 61 0
h 21 62 0
h 21 65 0
h 21 66 0
h 21 67 0
h 21 71 0
h 21 84 0
h 21 93 0
h 21 95 0
h 21 96 0
h 21 97 0
h 21 98 0
h 21 102 0
h 21 104 0
h 21 105 0
h 21 106 0
h 21 107 0
h 21 109 0
h 21 112 0
h 21 114 0
h 21 115 0
h 21 121 0
h 21 124 0
h 21 125 0
h 21 132 0
h 21 140 0
h 21 141 0
h 21 143 0
h 21 144 0
h 22 25 0
h 22 27 0
h 22 28 0
h 22 31 0
h 22 34 0
h 22 35 0
h 22 38 0
h 22 40 0
h 22 46 0
h 22 52 0
h 22 55 0
h 22 58 0
h 22 63 0
h 22 65 0
h 22 66 0
h 22 69 0
h 22 71 0
h 22 72 0
h 22 74 0
h 22 76 0
h 22 77 0
h 22 78 0
h 22 80 0
h 22 83 0
h 22 89 0
h 22 90 0
h 22 95 0
h 22 96 0
h 22 98 0
h 22 99 0
h 22 101 0
h 22 107 0
h 22 111 0
h 22 116 0
h 22 117 0
h 22 119 0
h 22 123 0
h 22 125 0
h 22 136 0
h 22 137 0
h 23 31 0
h 23 33 0
h 23 35 0
h 23 37 0
h 23 40 0
h 23 42 0
h 23 45 0
h 23 52 0
h 23 54 0
h 23 55 0
h 23 57 0
h 23 64 0
h 23 68 0
h 23 71 0
h 23 74 0
h 23 77 0
h 23 83 0
h 23 84 0
h 23 90 0
h 23 92 0
h 23 93 0
h 23 94 0
h 23 107 0
h 23 108 0
h 23 110 0
h 23 112 0
h 23 114 0
h 23 115 0
h 23 118 0
h 23 119 0
h 23 122 0
h 23 124 0
h 23 128 0
h 23 130 0
h 23 131 0
h 23 135 0
h 23 140 0
h 23 143 0
h 23 144 0
h 23 147 0
h 23 148 0
h 23 149 0
h 24 32 0
h 24 33 0
h 24 35 0
h 24 39 0
h 24 40 0
h 24 41 0
h 24 42 0
h 24 45 0
h 24 46 0
h 24 48 0
h 24 51 0
h 24 55 0
h 24 56 0
h 24 58 0
h 24 59 0
h 24 64 0
h 24 65 0
h 24 69 0
h 24 71 0
h 24 75 0
h 24 78 0
h 24 79 0
h 24 83 0
h 24 84 0
h 24 87 0
h 24 89 0
h 24 94 0
h 24 95 0
h 24 98 0
h 24 100 0
h 24 103 0
h 24 105 0
h 24 110 0
h 24 116 0
h 24 118 0
h 24 121 0
h 24 122 0
h 24 123 0
h 24 129 0
h 24 132 0
h 24 135 0
h 24 136 0
h 24 138 0
h 24 140 0
h 24 141 0
h 24 144 0
h 24 145 0
h 24 148 0
h 24 149 0
h 25 26 0
h 25 28 0
h 25 32 0
h 25 33 0
h 25 34 0
h 25 35 0
h 25 37 0
h 25 38 0
h 25 40 0
h 25 48 0
h 25 53 0
h 25 59 0
h 25 61 0
h 25 64 0
h 25 72 0
h 25 83 0
h 25 87 0
h 25 92 0
h 25 96 0
h 25 98 0
h 25 103 0
h 25 108 0
h 25 110 0
h 25 118 0
h 25 119 0
h 25 120 0
h 25 123 0
h 25 132 0
h 25 136 0
h 25 139 0
h 25 147 0
h 25 148 0
h 25 149 0
h 25 150 0
h 26 29 0
h 26 32 0
h 26 34 0
h 26 36 0
h 26 39 0
h 26 40 0
h 26 42 0
h 26 44 0
h 26 45 0
h 26 48 0
h 26 53 0
h 26 57 0
h 26 67 0
h 26 73 0
h 26 74 0
h 26 79 0
h 26 80 0
h 26 85 0
h 26 86 0
h 26 90 0
h 26 93 0
h 26 96 0
h 26 98 0
h 26 103 0
h 26 104 0
h 26 107 0
h 26 110 0
h 26 111 0
h 26 114 0
h 26 116 0
h 26 117 0
h 26 118 0
h 26 122 0
h 26 127 0
h 26 133 0
h 26 135 0
h 26 136 0
h 26 144 0
h 26 147 0
h 26 148 0
h 27 32 0
h 27 33 0
h 27 34 0
h 27 35 0
h 27 38 0
h 27 39 0
h 27 44 0
h 27 48 0
h 27 50 0
h 27 52 0
h 27 55 0
h 27 57 0
h 27 58 0
h 27 61 0
h 27 62 0
h 27 63 0
h 27 67 0
h 27 68 0
h 27 77 0
h 27 79 0
h 27 81 0
h 27 83 0
h 27 86 0
h 27 93 0
h 27 95 0
h 27 96 0
h 27 99 0
h 27 100 0
h 27 108 0
h 27 113 0
h 27 114 0
h 27 116 0
h 27 117 0
h 27 118 0
h 27 121 0
h 27 122 0
h 27 125 0
h 27 126 0
h 27 129 0
h 27 131 0
h 27 134 0
h 27 139 0
h 27 144 0
h 27 145 0
h 27 146 0
h 27 149 0
h 28 32 0
h 28 33 0
h 28 35 0
h 28 40 0
h 28 41 0
h 28 42 0
h 28 44 0
h 28 47 0
h 28 49 0
h 28 55 0
h 28 60 0
h 28 66 0
h 28 68 0
h 28 70 0
h 28 76 0
h 28 79 0
h 28 81 0
h 28 82 0
h 28 84 0
h 28 93 0
h 28 96 0
h 28 97 0
h 28 99 0
h 28 110 0
h 28 114 0
h 28 115 0
h 28 117 0
h 28 118 0
h 28 119 0
h 28 121 0
h 28 128 0
h 28 130 0
h 28 132 0
h 28 134 0
h 28 136 0
h 28 138 0
h 28 141 0
h 28 145 0
h 28 146 0
h 28 149 0
h 29 30 0
h 29 31 0
h 29 34 0
h 29 35 0
h 29 36 0
h 29 37 0
h 29 38 0
h 29 41 0
h 29 47 0
h 29 48 0
h 29 49 0
h 29 53 0
h 29 55 0
h 29 57 0
h 29 58 0
h 29 59 0
h 29 61 0
h 29 66 0
h 29 71 0
h 29 72 0
h 29 73 0
h 29 76 0
h 29 77 0
h 29 78 0
h 29 80 0
h 29 81 0
h 29 84 0
h 29 92 0
h 29 93 0
h 29 101 0
h 29 103 0
h 29 106 0
h 29 107 0
h 29 110 0
h 29 114 0
h 29 121 0
h 29 124 0
h 29 131 0
h 29 141 0
h 29 144 0
h 29 149 0
h 29 150 0
h 30 33 0
h 30 35 0
h 30 39 0
h 30 41 0
h 30 47 0
h 30 49 0
h 30 50 0
h 30 57 0
h 30 58 0
h 30 60 0
h 30 61 0
h 30 64 0
h 30 66 0
h 30 67 0
h 30 72 0
h 30 73 0
h 30 75 0
h 30 84 0
h 30 86 0
h 30 89 0
h 30 97 0
h 30 98 0
h 30 101 0
h 30 107 0
h 30 113 0
h 30 116 0
h 30 118 0
h 30 119 0
h 30 122 0
h 30 124 0
h 30 125 0
h 30 128 0
h 30 130 0
h 30 138 0
h 30 147 0
h 30 149 0
h 31 34 0
h 31 35 0
h 31 39 0
h 31 42 0
h 31 45 0
h 31 49 0
h 31 51 0
h 31 52 0
h 31 55 0
h 31 61 0
h 31 63 0
h 31 66 0
h 31 69 0
h 31 72 0
h 31 74 0
h 31 75 0
h 31 77 0
h 31 80 0
h 31 81 0
h 31 82 0
h 31 87 0
h 31 97 0
h 31 98 0
h 31 101 0
h 31 102 0
h 31 105 0
h 31 110 0
h 31 111 0
h 31 117 0
h 31 123 0
h 31 126 0
h 31 130 0
h 31 134 0
h 31 135 0
h 31 142 0
h 31 144 0
h 31 147 0
h 31 148 0
h 31 150 0
h 32 35 0
h 32 36 0
h 32 37 0
h 32 38 0
h 32 42 0
h 32 53 0
h 32 54 0
h 32 57 0
h 32 59 0
h 32 60 0
h 32 61 0
h 32 64 0
h 32 65 0
h 32 70 0
h 32 72 0
h 32 73 0
h 32 74 0
h 32 78 0
h 32 84 0
h 32 85 0
h 32 86 0
h 32 90 0
h 32 91 0
h 32 95 0
h 32 97 0
h 32 100 0
h 32 104 0
h 32 106 0
h 32 108 0
h 32 109 0
h 32 110 0
h 32 118 0
h 32 120 0
h 32 122 0
h 32 124 0
h 32 127 0
h 32 135 0
h 32 136 0
h 32 140 0
h 32 141 0
h 32 142 0
h 32 143 0
h 32 144 0
h 33 36 0
h 33 41 0
h 33 44 0
h 33 45 0
h 33 46 0
h 33 48 0
h 33 53 0
h 33 56 0
h 33 57 0
h 33 61 0
h 33 68 0
h 33 76 0
h 33 78 0
h 33 81 0
h 33 82 0
h 33 83 0
h 33 90 0
h 33 91 0
h 33 96 0
h 33 99 0
h 33 100 0
h 33 101 0
h 33 106 0
h 33 108 0
h 33 112 0
h 33 113 0
h 33 130 0
h 33 131 0
h 33 133 0
h 33 142 0
h 33 145 0
h 33 149 0
h 34 37 0
h 34 41 0
h 34 53 0
h 34 54 0
h 34 56 0
h 34 57 0
h 34 67 0
h 34 71 0
h 34 72 0
h 34 73 0
h 34 74 0
h 34 75 0
h 34 80 0
h 34 91 0
h 34 95 0
h 34 97 0
h 34 101 0
h 34 107 0
h 34 109 0
h 34 113 0
h 34 114 0
h 34 120 0
h 34 122 0
h 34 125 0
h 34 127 0
h 34 129 0
h 34 130 0
h 34 131 0
h 34 136 0
h 34 138 0
h 35 38 0
h 35 39 0
h 35 40 0
h 35 41 0
h 35 52 0
h 35 60 0
h 35 62 0
h 35 63 0
h 35 64 0
h 35 68 0
h 35 69 0
h 35 80 0
h 35 84 0
h 35 89 0
h 35 99 0
h 35 107 0
h 35 111 0
h 35 119 0
h 35 121 0
h 35 123 0
h 35 128 0
h 35 129 0
h 35 136 0
h 35 141 0
h 35 147 0
h 35 148 0
h 36 37 0
h 36 39 0
h 36 40 0
h 36 41 0
h 36 47 0
h 36 50 0
h 36 51 0
h 36 54 0
h 36 59 0
h 36 62 0
h 36 68 0
h 36 69 0
h 36 72 0
h 36 73 0
h 36 74 0
h 36 75 0
h 36 76 0
h 36 77 0
h 36 78 0
h 36 89 0
h 36 96 0
h 36 97 0
h 36 102 0
h 36 105 0
h 36 106 0
h 36 111 0
h 36 119 0
h 36 124 0
h 36 125 0
h 36 128 0
h 36 134 0
h 36 135 0
h 36 139 0
h 36 146 0
h 36 150 0
h 37 38 0
h 37 39 0
h 37 43 0
h 37 44 0
h 37 50 0
h 37 58 0
h 37 69 0
h 37 72 0
h 37 73 0
h 37 80 0
h 37 82 0
h 37 85 0
h 37 86 0
h 37 90 0
h 37 93 0
h 37 100 0
h 37 110 0
h 37 112 0
h 37 114 0
h 37 117 0
h 37 119 0
h 37 121 0
h 37 123 0
h 37 125 0
h 37 128 0
h 37 130 0
h 37 131 0
h 37 135 0
h 37 138 0
h 37 147 0
h 38 41 0
h 38 43 0
h 38 44 0
h 38 46 0
h 38 48 0
h 38 52 0
h 38 54 0
h 38 55 0
h 38 56 0
h 38 58 0
h 38 59 0
h 38 62 0
h 38 63 0
h 38 68 0
h 38 69 0
h 38 70 0
h 38 71 0
h 38 73 0
h 38 75 0
h 38 76 0
h 38 77 0
h 38 80 0
h 38 82 0
h 38 84 0
h 38 85 0
h 38 86 0
h 38 95 0
h 38 105 0
h 38 107 0
h 38 110 0
h 38 111 0
h 38 112 0
h 38 114 0
h 38 118 0
h 38 119 0
h 38 124 0
h 38 127 0
h 38 131 0
h 38 135 0
h 38 139 0
h 38 142 0
h 38 145 0
h 38 150 0
h 39 41 0
h 39 44 0
h 39 47 0
h 39 55 0
h 39 56 0
h 39 58 0
h 39 60 0
h 39 62 0
h 39 66 0
h 39 67 0
h 39 74 0
h 39 82 0
h 39 84 0
h 39 86 0
h 39 88 0
h 39 89 0
h 39 91 0
h 39 92 0
h 39 95 0
h 39 96 0
h 39 101 0
h 39 107 0
h 39 113 0
h 39 117 0
h 39 121 0
h 39 123 0
h 39 124 0
h 39 125 0
h 39 127 0
h 39 128 0
h 39 130 0
h 39 133 0
h 39 134 0
h 39 135 0
h 39 136 0
h 39 137 0
h 39 138 0
h 39 139 0
h 39 144 0
h 39 145 0
h 40 42 0
h 40 45 0
h 40 48 0
h 40 54 0
h 40 63 0
h 40 64 0
h 40 66 0
h 40 70 0
h 40 72 0
h 40 74 0
h 40 75 0
h 40 76 0
h 40 78 0
h 40 84 0
h 40 86 0
h 40 87 0
h 40 88 0
h 40 94 0
h 40 95 0
h 40 98 0
h 40 99 0
h 40 105 0
h 40 106 0
h 40 107 0
h 40 108 0
h 40 109 0
h 40 110 0
h 40 112 0
h 40 118 0
h 40 120 0
h 40 121 0
h 40 125 0
h 40 126 0
h 40 127 0
h 40 131 0
h 40 132 0
h 40 133 0
h 40 136 0
h 40 141 0
h 40 143 0
h 40 148 0
h 41 42 0
h 41 48 0
h 41 50 0
h 41 54 0
h 41 59 0
h 41 60 0
h 41 61 0
h 41 62 0
h 41 68 0
h 41 69 0
h 41 73 0
h 41 78 0
h 41 83 0
h 41 84 0
h 41 86 0
h 41 98 0
h 41 103 0
h 41 105 0
h 41 107 0
h 41 109 0
h 41 113 0
h 41 114 0
h 41 116 0
h 41 118 0
h 41 120 0
h 41 124 0
h 41 130 0
h 41 138 0
h 41 139 0
h 41 140 0
h 41 141 0
h 41 142 0
h 41 144 0
h 41 145 0
h 42 43 0
h 42 44 0
h 42 50 0
h 42 59 0
h 42 61 0
h 42 65 0
h 42 66 0
h 42 69 0
h 42 71 0
h 42 74 0
h 42 77 0
h 42 78 0
h 42 80 0
h 42 81 0
h 42 84 0
h 42 85 0
h 42 92 0
h 42 96 0
h 42 98 0
h 42 101 0
h 42 103 0
h 42 104 0
h 42 107 0
h 42 112 0
h 42 113 0
h 42 114 0
h 42 117 0
h 42 124 0
h 42 125 0
h 42 134 0
h 42 135 0
h 42 136 0
h 42 137 0
h 42 140 0
h 42 142 0
h 42 144 0
h 42 147 0
h 42 149 0
h 43 45 0
h 43 53 0
h 43 54 0
h 43 55 0
h 43 56 0
h 43 57 0
h 43 61 0
h 43 72 0
h 43 73 0
h 43 84 0
h 43 96 0
h 43 97 0
h 43 101 0
h 43 103 0
h 43 107 0
h 43 108 0
h 43 111 0
h 43 112 0
h 43 119 0
h 43 122 0
h 43 131 0
h 43 141 0
h 43 143 0
h 43 145 0
h 43 147 0
h 43 150 0
h 44 45 0
h 44 49 0
h 44 50 0
h 44 58 0
h 44 59 0
h 44 63 0
h 44 65 0
h 44 69 0
h 44 77 0
h 44 78 0
h 44 85 0
h 44 87 0
h 44 97 0
h 44 99 0
h 44 100 0
h 44 109 0
h 44 110 0
h 44 115 0
h 44 118 0
h 44 123 0
h 44 126 0
h 44 131 0
h 44 133 0
h 44 134 0
h 44 142 0
h 44 144 0
h 45 47 0
h 45 51 0
h 45 57 0
h 45 58 0
h 45 63 0
h 45 66 0
h 45 71 0
h 45 75 0
h 45 76 0
h 45 77 0
h 45 83 0
h 45 84 0
h 45 85 0
h 45 86 0
h 45 94 0
h 45 104 0
h 45 105 0
h 45 108 0
h 45 112 0
h 45 116 0
h 45 119 0
h 45 121 0
h 45 124 0
h 45 130 0
h 45 135 0
h 45 136 0
h 45 138 0
h 45 140 0
h 46 48 0
h 46 51 0
h 46 53 0
h 46 56 0
h 46 58 0
h 46 59 0
h 46 60 0
h 46 61 0
h 46 62 0
h 46 64 0
h 46 66 0
h 46 75 0
h 46 76 0
h 46 81 0
h 46 85 0
h 46 86 0
h 46 88 0
h 46 89 0
h 46 91 0
h 46 92 0
h 46 95 0
h 46 99 0
h 46 102 0
h 46 110 0
h 46 115 0
h 46 129 0
h 46 132 0
h 46 134 0
h 46 138 0
h 46 140 0
h 46 142 0
h 46 143 0
h 46 144 0
h 46 145 0
h 46 146 0
h 46 147 0
h 46 148 0
h 47 48 0
h 47 49 0
h 47 51 0
h 47 52 0
h 47 54 0
h 47 55 0
h 47 59 0
h 47 60 0
h 47 65 0
h 47 69 0
h 47 72 0
h 47 75 0
h 47 79 0
h 47 80 0
h 47 85 0
h 47 89 0
h 47 90 0
h 47 91 0
h 47 93 0
h 47 94 0
h 47 96 0
h 47 99 0
h 47 100 0
h 47 101 0
h 47 102 0
h 47 107 0
h 47 108 0
h 47 110 0
h 47 113 0
h 47 117 0
h 47 118 0
h 47 119 0
h 47 122 0
h 47 123 0
h 47 124 0
h 47 134 0
h 47 138 0
h 47 140 0
h 47 142 0
h 47 145 0
h 47 146 0
h 47 147 0
h 47 148 0
h 48 51 0
h 48 52 0
h 48 56 0
h 48 58 0
h 48 69 0
h 48 70 0
h 48 71 0
h 48 73 0
h 48 74 0
h 48 84 0
h 48 86 0
h 48 89 0
h 48 90 0
h 48 95 0
h 48 97 0
h 48 99 0
h 48 100 0
h 48 102 0
h 48 109 0
h 48 111 0
h 48 112 0
h 48 113 0
h 48 116 0
h 48 117 0
h 48 120 0
h 48 123 0
h 48 134 0
h 48 141 0
h 48 145 0
h 48 148 0
h 48 149 0
h 49 51 0
h 49 54 0
h 49 56 0
h 49 58 0
h 49 63 0
h 49 64 0
h 49 66 0
h 49 68 0
h 49 69 0
h 49 70 0
h 49 72 0
h 49 73 0
h 49 77 0
h 49 84 0
h 49 85 0
h 49 89 0
h 49 90 0
h 49 95 0
h 49 96 0
h 49 97 0
h 49 99 0
h 49 101 0
h 49 103 0
h 49 110 0
h 49 111 0
h 49 112 0
h 49 117 0
h 49 118 0
h 49 121 0
h 49 122 0
h 49 129 0
h 49 130 0
h 49 132 0
h 49 139 0
h 49 147 0
h 49 150 0
h 50 51 0
h 50 54 0
h 50 55 0
h 50 57 0
h 50 58 0
h 50 63 0
h 50 65 0
h 50 66 0
h 50 67 0
h 50 70 0
h 50 71 0
h 50 79 0
h 50 87 0
h 50 88 0
h 50 96 0
h 50 104 0
h 50 107 0
h 50 113 0
h 50 114 0
h 50 115 0
h 50 119 0
h 50 124 0
h 50 127 0
h 50 128 0
h 50 129 0
h 50 135 0
h 50 137 0
h 50 138 0
h 50 139 0
h 50 140 0
h 50 141 0
h 50 146 0
h 50 148 0
h 50 149 0
h 51 52 0
h 51 53 0
h 51 62 0
h 51 65 0
h 51 69 0
h 51 72 0
h 51 74 0
h 51 76 0
h 51 77 0
h 51 79 0
h 51 80 0
h 51 82 0
h 51 83 0
h 51 90 0
h 51 93 0
h 51 94 0
h 51 96 0
h 51 100 0
h 51 101 0
h 51 103 0
h 51 107 0
h 51 112 0
h 51 116 0
h 51 121 0
h 51 128 0
h 51 129 0
h 51 132 0
h 51 137 0
h 51 147 0
h 51 150 0
h 52 60 0
h 52 67 0
h 52 71 0
h 52 72 0
h 52 81 0
h 52 82 0
h 52 84 0
h 52 85 0
h 52 87 0
h 52 90 0
h 52 105 0
h 52 107 0
h 52 111 0
h 52 118 0
h 52 119 0
h 52 122 0
h 52 125 0
h 52 126 0
h 52 131 0
h 52 133 0
h 52 144 0
h 52 150 0
h 53 55 0
h 53 56 0
h 53 60 0
h 53 62 0
h 53 69 0
h 53 72 0
h 53 76 0
h 53 80 0
h 53 81 0
h 53 86 0
h 53 87 0
h 53 88 0
h 53 89 0
h 53 90 0
h 53 94 0
h 53 95 0
h 53 97 0
h 53 105 0
h 53 106 0
h 53 108 0
h 53 110 0
h 53 111 0
h 53 112 0
h 53 115 0
h 53 119 0
h 53 120 0
h 53 123 0
h 53 124 0
h 53 127 0
h 53 128 0
h 53 129 0
h 53 134 0
h 53 139 0
h 53 140 0
h 54 55 0
h 54 57 0
h 54 61 0
h 54 68 0
h 54 70 0
h 54 71 0
h 54 74 0
h 54 77 0
h 54 79 0
h 54 82 0
h 54 89 0
h 54 91 0
h 54 93 0
h 54 97 0
h 54 98 0
h 54 102 0
h 54 109 0
h 54 110 0
h 54 111 0
h 54 112 0
h 54 113 0
h 54 114 0
h 54 120 0
h 54 122 0
h 54 125 0
h 54 126 0
h 54 127 0
h 54 129 0
h 54 130 0
h 54 145 0
h 54 148 0
h 54 150 0
h 55 58 0
h 55 59 0
h 55 62 0
h 55 64 0
h 55 65 0
h 55 66 0
h 55 68 0
h 55 71 0
h 55 83 0
h 55 93 0
h 55 97 0
h 55 99 0
h 55 101 0
h 55 105 0
h 55 106 0
h 55 109 0
h 55 113 0
h 55 119 0
h 55 120 0
h 55 121 0
h 55 122 0
h 55 123 0
h 55 125 0
h 55 126 0
h 55 127 0
h 55 133 0
h 55 136 0
h 55 140 0
h 55 144 0
h 55 145 0
h 55 146 0
h 55 147 0
h 56 62 0
h 56 64 0
h 56 67 0
h 56 68 0
h 56 72 0
h 56 76 0
h 56 82 0
h 56 85 0
h 56 88 0
h 56 95 0
h 56 96 0
h 56 97 0
h 56 98 0
h 56 99 0
h 56 102 0
h 56 105 0
h 56 108 0
h 56 111 0
h 56 114 0
h 56 117 0
h 56 119 0
h 56 124 0
h 56 125 0
h 56 126 0
h 56 131 0
h 56 133 0
h 56 137 0
h 56 138 0
h 56 139 0
h 56 144 0
h 56 145 0
h 56 149 0
h 56 150 0
h 57 61 0
h 57 65 0
h 57 68 0
h 57 69 0
h 57 74 0
h 57 76 0
h 57 78 0
h 57 82 0
h 57 84 0
h 57 89 0
h 57 90 0
h 57 91 0
h 57 99 0
h 57 100 0
h 57 111 0
h 57 112 0
h 57 115 0
h 57 116 0
h 57 120 0
h 57 126 0
h 57 127 0
h 57 129 0
h 57 132 0
h 57 136 0
h 57 144 0
h 57 145 0
h 57 146 0
h 57 148 0
h 58 66 0
h 58 70 0
h 58 73 0
h 58 76 0
h 58 78 0
h 58 79 0
h 58 80 0
h 58 83 0
h 58 90 0
h 58 96 0
h 58 100 0
h 58 108 0
h 58 110 0
h 58 114 0
h 58 118 0
h 58 127 0
h 58 130 0
h 58 135 0
h 58 136 0
h 58 137 0
h 58 139 0
h 58 142 0
h 58 146 0
h 58 149 0
h 59 60 0
h 59 62 0
h 59 65 0
h 59 67 0
h 59 68 0
h 59 70 0
h 59 71 0
h 59 76 0
h 59 78 0
h 59 79 0
h 59 81 0
h 59 87 0
h 59 90 0
h 59 92 0
h 59 100 0
h 59 102 0
h 59 104 0
h 59 106 0
h 59 108 0
h 59 111 0
h 59 112 0
h 59 121 0
h 59 123 0
h 59 124 0
h 59 125 0
h 59 130 0
h 59 131 0
h 59 132 0
h 59 133 0
h 59 136 0
h 59 139 0
h 59 141 0
h 59 145 0
h 59 147 0
h 59 148 0
h 59 150 0
h 60 63 0
h 60 64 0
h 60 65 0
h 60 70 0
h 60 73 0
h 60 74 0
h 60 76 0
h 60 80 0
h 60 81 0
h 60 83 0
h 60 86 0
h 60 88 0
h 60 92 0
h 60 94 0
h 60 95 0
h 60 96 0
h 60 99 0
h 60 106 0
h 60 108 0
h 60 109 0
h 60 110 0
h 60 111 0
h 60 112 0
h 60 114 0
h 60 116 0
h 60 117 0
h 60 118 0
h 60 120 0
h 60 121 0
h 60 123 0
h 60 124 0
h 60 125 0
h 60 130 0
h 60 135 0
h 60 136 0
h 60 140 0
h 60 145 0
h 60 149 0
h 61 68 0
h 61 71 0
h 61 72 0
h 61 76 0
h 61 77 0
h 61 79 0
h 61 80 0
h 61 81 0
h 61 82 0
h 61 90 0
h 61 96 0
h 61 97 0
h 61 103 0
h 61 105 0
h 61 106 0
h 61 111 0
h 61 120 0
h 61 123 0
h 61 126 0
h 61 132 0
h 61 134 0
h 61 141 0
h 61 142 0
h 61 146 0
h 61 149 0
h 61 150 0
h 62 63 0
h 62 64 0
h 62 76 0
h 62 77 0
h 62 80 0
h 62 81 0
h 62 82 0
h 62 83 0
h 62 85 0
h 62 89 0
h 62 96 0
h 62 100 0
h 62 103 0
h 62 111 0
h 62 114 0
h 62 120 0
h 62 121 0
h 62 124 0
h 62 130 0
h 62 135 0
h 62 142 0
h 62 144 0
h 62 146 0
h 62 148 0
h 62 149 0
h 63 65 0
h 63 71 0
h 63 79 0
h 63 86 0
h 63 95 0
h 63 97 0
h 63 100 0
h 63 101 0
h 63 104 0
h 63 106 0
h 63 107 0
h 63 115 0
h 63 116 0
h 63 118 0
h 63 125 0
h 63 127 0
h 63 128 0
h 63 131 0
h 63 133 0
h 63 134 0
h 63 135 0
h 63 141 0
h 63 142 0
h 63 145 0
h 63 148 0
h 64 66 0
h 64 73 0
h 64 76 0
h 64 82 0
h 64 89 0
h 64 96 0
h 64 97 0
h 64 98 0
h 64 99 0
h 64 102 0
h 64 104 0
h 64 109 0
h 64 111 0
h 64 112 0
h 64 114 0
h 64 115 0
h 64 121 0
h 64 126 0
h 64 128 0
h 64 130 0
h 64 133 0
h 64 134 0
h 64 136 0
h 64 137 0
h 64 138 0
h 64 140 0
h 64 143 0
h 64 145 0
h 64 146 0
h 64 147 0
h 65 70 0
h 65 76 0
h 65 79 0
h 65 80 0
h 65 83 0
h 65 90 0
h 65 93 0
h 65 100 0
h 65 104 0
h 65 105 0
h 65 110 0
h 65 113 0
h 65 118 0
h 65 120 0
h 65 130 0
h 65 131 0
h 65 132 0
h 65 140 0
h 65 141 0
h 65 143 0
h 66 68 0
h 66 72 0
h 66 73 0
h 66 75 0
h 66 76 0
h 66 84 0
h 66 88 0
h 66 90 0
h 66 92 0
h 66 95 0
h 66 101 0
h 66 103 0
h 66 106 0
h 66 107 0
h 66 108 0
h 66 109 0
h 66 110 0
h 66 111 0
h 66 114 0
h 66 116 0
h 66 117 0
h 66 118 0
h 66 120 0
h 66 121 0
h 66 124 0
h 66 128 0
h 66 130 0
h 66 131 0
h 66 132 0
h 66 141 0
h 66 142 0
h 66 144 0
h 66 146 0
h 67 68 0
h 67 70 0
h 67 71 0
h 67 74 0
h 67 79 0
h 67 83 0
h 67 84 0
h 67 86 0
h 67 96 0
h 67 100 0
h 67 105 0
h 67 106 0
h 67 110 0
h 67 113 0
h 67 114 0
h 67 116 0
h 67 119 0
h 67 120 0
h 67 122 0
h 67 124 0
h 67 125 0
h 67 127 0
h 67 128 0
h 67 131 0
h 67 136 0
h 67 139 0
h 67 140 0
h 67 147 0
h 67 148 0
h 67 149 0
h 68 71 0
h 68 72 0
h 68 76 0
h 68 77 0
h 68 78 0
h 68 79 0
h 68 82 0
h 68 85 0
h 68 87 0
h 68 89 0
h 68 91 0
h 68 95 0
h 68 96 0
h 68 99 0
h 68 100 0
h 68 102 0
h 68 104 0
h 68 110 0
h 68 115 0
h 68 116 0
h 68 121 0
h 68 125 0
h 68 129 0
h 68 133 0
h 68 134 0
h 68 136 0
h 68 137 0
h 68 138 0
h 68 139 0
h 68 141 0
h 68 146 0
h 69 70 0
h 69 73 0
h 69 75 0
h 69 76 0
h 69 80 0
h 69 89 0
h 69 93 0
h 69 97 0
h 69 99 0
h 69 101 0
h 69 102 0
h 69 106 0
h 69 107 0
h 69 108 0
h 69 112 0
h 69 115 0
h 69 121 0
h 69 122 0
h 69 125 0
h 69 135 0
h 69 137 0
h 69 138 0
h 69 149 0
h 70 75 0
h 70 76 0
h 70 79 0
h 70 80 0
h 70 86 0
h 70 95 0
h 70 96 0
h 70 98 0
h 70 99 0
h 70 100 0
h 70 103 0
h 70 107 0
h 70 109 0
h 70 116 0
h 70 117 0
h 70 124 0
h 70 128 0
h 70 129 0
h 70 132 0
h 70 133 0
h 70 135 0
h 70 139 0
h 70 140 0
h 70 141 0
h 70 143 0
h 70 150 0
h 71 72 0
h 71 75 0
h 71 77 0
h 71 78 0
h 71 84 0
h 71 85 0
h 71 86 0
h 71 89 0
h 71 91 0
h 71 92 0
h 71 94 0
h 71 97 0
h 71 98 0
h 71 101 0
h 71 103 0
h 71 105 0
h 71 108 0
h 71 110 0
h 71 111 0
h 71 112 0
h 71 116 0
h 71 120 0
h 71 121 0
h 71 130 0
h 71 132 0
h 71 135 0
h 71 139 0
h 71 140 0
h 71 141 0
h 71 143 0
h 72 74 0
h 72 83 0
h 72 87 0
h 72 95 0
h 72 98 0
h 72 99 0
h 72 100 0
h 72 106 0
h 72 107 0
h 72 110 0
h 72 111 0
h 72 112 0
h 72 114 0
h 72 117 0
h 72 121 0
h 72 122 0
h 72 126 0
h 72 129 0
h 72 132 0
h 72 134 0
h 72 139 0
h 72 141 0
h 72 149 0
h 72 150 0
h 73 76 0
h 73 80 0
h 73 81 0
h 73 82 0
h 73 84 0
h 73 85 0
h 73 94 0
h 73 99 0
h 73 100 0
h 73 104 0
h 73 105 0
h 73 106 0
h 73 107 0
h 73 109 0
h 73 110 0
h 73 113 0
h 73 116 0
h 73 125 0
h 73 127 0
h 73 131 0
h 73 133 0
h 73 137 0
h 73 141 0
h 73 143 0
h 73 148 0
h 73 149 0
h 74 82 0
h 74 84 0
h 74 94 0
h 74 96 0
h 74 102 0
h 74 104 0
h 74 107 0
h 74 109 0
h 74 111 0
h 74 118 0
h 74 119 0
h 74 120 0
h 74 121 0
h 74 123 0
h 74 125 0
h 74 127 0
h 74 129 0
h 74 132 0
h 74 135 0
h 74 136 0
h 74 137 0
h 74 139 0
h 74 140 0
h 74 141 0
h 74 143 0
h 74 144 0
h 74 149 0
h 75 77 0
h 75 90 0
h 75 91 0
h 75 94 0
h 75 95 0
h 75 105 0
h 75 110 0
h 75 113 0
h 75 118 0
h 75 120 0
h 75 124 0
h 75 125 0
h 75 129 0
h 75 130 0
h 75 133 0
h 75 134 0
h 75 136 0
h 75 137 0
h 75 138 0
h 75 142 0
h 75 143 0
h 75 147 0
h 75 148 0
h 76 77 0
h 76 78 0
h 76 79 0
h 76 83 0
h 76 84 0
h 76 85 0
h 76 86 0
h 76 96 0
h 76 97 0
h 76 100 0
h 76 103 0
h 76 112 0
h 76 113 0
h 76 115 0
h 76 119 0
h 76 120 0
h 76 124 0
h 76 130 0
h 76 134 0
h 76 139 0
h 76 143 0
h 76 146 0
h 76 150 0
h 77 78 0
h 77 81 0
h 77 85 0
h 77 89 0
h 77 91 0
h 77 94 0
h 77 95 0
h 77 102 0
h 77 104 0
h 77 116 0
h 77 118 0
h 77 122 0
h 77 124 0
h 77 128 0
h 77 130 0
h 77 133 0
h 77 136 0
h 77 138 0
h 77 141 0
h 77 143 0
h 77 145 0
h 77 146 0
h 77 149 0
h 78 79 0
h 78 80 0
h 78 83 0
h 78 85 0
h 78 86 0
h 78 91 0
h 78 99 0
h 78 100 0
h 78 106 0
h 78 109 0
h 78 111 0
h 78 112 0
h 78 119 0
h 78 121 0
h 78 124 0
h 78 132 0
h 78 133 0
h 79 81 0
h 79 82 0
h 79 83 0
h 79 84 0
h 79 87 0
h 79 88 0
h 79 90 0
h 79 93 0
h 79 95 0
h 79 101 0
h 79 105 0
h 79 119 0
h 79 126 0
h 79 128 0
h 79 129 0
h 79 131 0
h 79 136 0
h 79 138 0
h 79 139 0
h 79 141 0
h 79 145 0
h 79 147 0
h 79 149 0
h 80 81 0
h 80 83 0
h 80 86 0
h 80 87 0
h 80 92 0
h 80 96 0
h 80 104 0
h 80 106 0
h 80 107 0
h 80 108 0
h 80 113 0
h 80 116 0
h 80 117 0
h 80 118 0
h 80 120 0
h 80 121 0
h 80 122 0
h 80 129 0
h 80 132 0
h 80 137 0
h 80 139 0
h 80 141 0
h 80 143 0
h 80 147 0
h 81 82 0
h 81 85 0
h 81 87 0
h 81 88 0
h 81 95 0
h 81 97 0
h 81 98 0
h 81 99 0
h 81 102 0
h 81 104 0
h 81 105 0
h 81 115 0
h 81 116 0
h 81 118 0
h 81 127 0
h 81 130 0
h 81 133 0
h 81 135 0
h 81 136 0
h 81 137 0
h 81 138 0
h 81 143 0
h 81 145 0
h 81 147 0
h 81 149 0
h 81 150 0
h 82 83 0
h 82 84 0
h 82 89 0
h 82 94 0
h 82 97 0
h 82 101 0
h 82 102 0
h 82 103 0
h 82 109 0
h 82 111 0
h 82 116 0
h 82 126 0
h 82 128 0
h 82 141 0
h 82 145 0
h 82 146 0
h 82 148 0
h 82 150 0
h 83 84 0
h 83 85 0
h 83 86 0
h 83 91 0
h 83 96 0
h 83 97 0
h 83 100 0
h 83 102 0
h 83 108 0
h 83 117 0
h 83 118 0
h 83 119 0
h 83 122 0
h 83 124 0
h 83 125 0
h 83 126 0
h 83 128 0
h 83 130 0
h 83 133 0
h 83 140 0
h 83 141 0
h 83 143 0
h 83 147 0
h 83 150 0
h 84 85 0
h 84 86 0
h 84 94 0
h 84 103 0
h 84 104 0
h 84 106 0
h 84 108 0
h 84 109 0
h 84 110 0
h 84 127 0
h 84 135 0
h 84 139 0
h 84 144 0
h 84 147 0
h 85 86 0
h 85 87 0
h 85 91 0
h 85 94 0
h 85 101 0
h 85 102 0
h 85 103 0
h 85 105 0
h 85 115 0
h 85 116 0
h 85 117 0
h 85 118 0
h 85 119 0
h 85 125 0
h 85 128 0
h 85 129 0
h 85 138 0
h 85 139 0
h 85 142 0
h 85 149 0
h 85 150 0
h 86 89 0
h 86 96 0
h 86 98 0
h 86 100 0
h 86 103 0
h 86 104 0
h 86 105 0
h 86 107 0
h 86 109 0
h 86 119 0
h 86 120 0
h 86 121 0
h 86 124 0
h 86 128 0
h 86 132 0
h 86 136 0
h 86 137 0
h 86 138 0
h 86 139 0
h 86 143 0
h 86 148 0
h 86 150 0
h 87 91 0
h 87 93 0
h 87 94 0
h 87 95 0
h 87 96 0
h 87 101 0
h 87 106 0
h 87 110 0
h 87 111 0
h 87 112 0
h 87 122 0
h 87 123 0
h 87 127 0
h 87 128 0
h 87 131 0
h 87 135 0
h 87 145 0
h 87 146 0
h 87 147 0
h 87 150 0
h 88 89 0
h 88 91 0
h 88 95 0
h 88 102 0
h 88 104 0
h 88 105 0
h 88 106 0
h 88 107 0
h 88 109 0
h 88 117 0
h 88 120 0
h 88 123 0
h 88 124 0
h 88 130 0
h 88 133 0
h 88 134 0
h 88 141 0
h 88 149 0
h 88 150 0
h 89 90 0
h 89 95 0
h 89 96 0
h 89 100 0
h 89 102 0
h 89 103 0
h 89 104 0
h 89 105 0
h 89 106 0
h 89 112 0
h 89 115 0
h 89 119 0
h 89 124 0
h 89 125 0
h 89 126 0
h 89 128 0
h 89 130 0
h 89 139 0
h 89 150 0
h 90 95 0
h 90 101 0
h 90 106 0
h 90 108 0
h 90 111 0
h 90 115 0
h 90 116 0
h 90 119 0
h 90 120 0
h 90 122 0
h 90 123 0
h 90 142 0
h 91 99 0
h 91 103 0
h 91 106 0
h 91 107 0
h 91 108 0
h 91 109 0
h 91 113 0
h 91 115 0
h 91 117 0
h 91 120 0
h 91 123 0
h 91 127 0
h 91 128 0
h 91 130 0
h 91 131 0
h 91 132 0
h 91 133 0
h 91 139 0
h 91 142 0
h 91 147 0
h 92 94 0
h 92 96 0
h 92 97 0
h 92 98 0
h 92 100 0
h 92 101 0
h 92 104 0
h 92 106 0
h 92 108 0
h 92 113 0
h 92 114 0
h 92 117 0
h 92 121 0
h 92 131 0
h 92 133 0
h 92 135 0
h 92 136 0
h 92 141 0
h 92 142 0
h 92 145 0
h 92 149 0
h 92 150 0
h 93 94 0
h 93 95 0
h 93 97 0
h 93 98 0
h 93 100 0
h 93 103 0
h 93 104 0
h 93 121 0
h 93 123 0
h 93 125 0
h 93 128 0
h 93 132 0
h 93 135 0
h 93 136 0
h 93 140 0
h 93 147 0
h 93 148 0
h 93 149 0
h 93 150 0
h 94 102 0
h 94 105 0
h 94 113 0
h 94 124 0
h 94 127 0
h 94 128 0
h 94 133 0
h 94 134 0
h 94 139 0
h 94 145 0
h 94 150 0
h 95 98 0
h 95 104 0
h 95 110 0
h 95 115 0
h 95 116 0
h 95 117 0
h 95 118 0
h 95 121 0
h 95 130 0
h 95 132 0
h 95 134 0
h 95 136 0
h 95 137 0
h 95 142 0
h 95 143 0
h 95 148 0
h 95 150 0
h 96 100 0
h 96 113 0
h 96 115 0
h 96 116 0
h 96 117 0
h 96 126 0
h 96 132 0
h 96 135 0
h 96 136 0
h 96 137 0
h 96 138 0
h 96 142 0
h 96 143 0
h 96 144 0
h 96 147 0
h 96 149 0
h 97 98 0
h 97 102 0
h 97 103 0
h 97 104 0
h 97 108 0
h 97 110 0
h 97 115 0
h 97 116 0
h 97 118 0
h 97 120 0
h 97 123 0
h 97 124 0
h 97 130 0
h 97 133 0
h 97 140 0
h 97 141 0
h 97 142 0
h 97 147 0
h 97 148 0
h 97 150 0
h 98 99 0
h 98 103 0
h 98 104 0
h 98 109 0
h 98 110 0
h 98 112 0
h 98 115 0
h 98 117 0
h 98 119 0
h 98 120 0
h 98 123 0
h 98 124 0
h 98 128 0
h 98 129 0
h 98 132 0
h 98 133 0
h 98 134 0
h 98 137 0
h 98 140 0
h 98 141 0
h 98 150 0
h 99 105 0
h 99 109 0
h 99 113 0
h 99 116 0
h 99 117 0
h 99 120 0
h 99 125 0
h 99 129 0
h 99 133 0
h 99 134 0
h 99 136 0
h 99 139 0
h 99 141 0
h 99 144 0
h 99 145 0
h 100 107 0
h 100 109 0
h 100 113 0
h 100 116 0
h 100 118 0
h 100 126 0
h 100 128 0
h 100 138 0
h 100 139 0
h 100 140 0
h 100 141 0
h 100 146 0
h 100 150 0
h 101 102 0
h 101 113 0
h 101 114 0
h 101 119 0
h 101 123 0
h 101 127 0
h 101 128 0
h 101 132 0
h 101 134 0
h 101 141 0
h 101 142 0
h 101 143 0
h 101 144 0
h 101 150 0
h 102 106 0
h 102 108 0
h 102 112 0
h 102 116 0
h 102 121 0
h 102 123 0
h 102 130 0
h 102 132 0
h 102 136 0
h 102 144 0
h 102 146 0
h 102 147 0
h 103 107 0
h 103 108 0
h 103 109 0
h 103 110 0
h 103 111 0
h 103 112 0
h 103 113 0
h 103 115 0
h 103 116 0
h 103 117 0
h 103 118 0
h 103 129 0
h 103 138 0
h 103 141 0
h 103 146 0
h 103 150 0
h 104 107 0
h 104 108 0
h 104 111 0
h 104 112 0
h 104 116 0
h 104 117 0
h 104 121 0
h 104 125 0
h 104 126 0
h 104 127 0
h 104 129 0
h 104 131 0
h 104 136 0
h 104 140 0
h 104 141 0
h 104 147 0
h 105 108 0
h 105 112 0
h 105 114 0
h 105 116 0
h 105 119 0
h 105 120 0
h 105 123 0
h 105 129 0
h 105 134 0
h 105 139 0
h 105 140 0
h 105 143 0
h 105 144 0
h 105 145 0
h 106 108 0
h 106 118 0
h 106 121 0
h 106 122 0
h 106 124 0
h 106 127 0
h 106 130 0
h 106 131 0
h 106 136 0
h 106 144 0
h 106 149 0
h 107 110 0
h 107 113 0
h 107 114 0
h 107 115 0
h 107 122 0
h 107 125 0
h 107 127 0
h 107 128 0
h 107 130 0
h 107 134 0
h 107 137 0
h 107 141 0
h 107 145 0
h 107 146 0
h 107 149 0
h 108 110 0
h 108 112 0
h 108 116 0
h 108 117 0
h 108 120 0
h 108 123 0
h 108 124 0
h 108 128 0
h 108 133 0
h 108 136 0
h 108 137 0
h 108 146 0
h 109 110 0
h 109 113 0
h 109 115 0
h 109 123 0
h 109 132 0
h 109 133 0
h 109 150 0
h 110 114 0
h 110 115 0
h 110 117 0
h 110 118 0
h 110 120 0
h 110 123 0
h 110 129 0
h 110 130 0
h 110 138 0
h 110 140 0
h 110 141 0
h 110 146 0
h 110 149 0
h 111 113 0
h 111 115 0
h 111 116 0
h 111 117 0
h 111 123 0
h 111 125 0
h 111 127 0
h 111 129 0
h 111 130 0
h 111 131 0
h 111 132 0
h 111 134 0
h 111 140 0
h 111 141 0
h 111 144 0
h 111 145 0
h 111 146 0
h 111 147 0
h 112 114 0
h 112 115 0
h 112 116 0
h 112 124 0
h 112 125 0
h 112 126 0
h 112 131 0
h 112 134 0
h 112 141 0
h 112 146 0
h 112 150 0
h 113 117 0
h 113 118 0
h 113 120 0
h 113 123 0
h 113 127 0
h 113 128 0
h 113 133 0
h 113 142 0
h 113 143 0
h 113 145 0
h 113 148 0
h 114 117 0
h 114 120 0
h 114 122 0
h 114 123 0
h 114 126 0
h 114 127 0
h 114 132 0
h 114 133 0
h 114 134 0
h 114 136 0
h 114 137 0
h 114 142 0
h 114 143 0
h 114 147 0
h 114 148 0
h 115 117 0
h 115 119 0
h 115 121 0
h 115 122 0
h 115 124 0
h 115 125 0
h 115 126 0
h 115 130 0
h 115 132 0
h 115 133 0
h 115 135 0
h 115 136 0
h 115 140 0
h 115 141 0
h 116 119 0
h 116 120 0
h 116 123 0
h 116 124 0
h 116 131 0
h 116 136 0
h 116 139 0
h 116 142 0
h 116 145 0
h 116 147 0
h 116 149 0
h 117 122 0
h 117 124 0
h 117 127 0
h 117 128 0
h 117 132 0
h 117 135 0
h 117 137 0
h 117 138 0
h 117 144 0
h 117 147 0
h 117 150 0
h 118 121 0
h 118 125 0
h 118 126 0
h 118 141 0
h 118 142 0
h 118 145 0
h 118 146 0
h 119 133 0
h 119 134 0
h 119 142 0
h 119 146 0
h 119 147 0
h 119 150 0
h 120 121 0
h 120 125 0
h 120 128 0
h 120 133 0
h 120 134 0
h 120 136 0
h 120 140 0
h 120 141 0
h 120 143 0
h 120 145 0
h 120 147 0
h 120 148 0
h 121 130 0
h 121 131 0
h 121 132 0
h 121 134 0
h 121 135 0
h 121 140 0
h 121 145 0
h 121 148 0
h 122 126 0
h 122 130 0
h 122 133 0
h 122 135 0
h 122 139 0
h 122 146 0
h 122 147 0
h 122 149 0
h 123 124 0
h 123 125 0
h 123 130 0
h 123 133 0
h 123 135 0
h 123 139 0
h 123 140 0
h 123 141 0
h 123 145 0
h 123 146 0
h 123 148 0
h 124 127 0
h 124 135 0
h 124 136 0
h 124 140 0
h 124 141 0
h 124 143 0
h 124 148 0
h 125 131 0
h 125 132 0
h 125 133 0
h 125 136 0
h 125 140 0
h 125 146 0
h 126 127 0
h 126 129 0
h 126 130 0
h 126 134 0
h 126 143 0
h 126 144 0
h 126 146 0
h 126 148 0
h 127 129 0
h 127 134 0
h 127 136 0
h 127 140 0
h 127 143 0
h 127 146 0
h 127 147 0
h 127 149 0
h 128 129 0
h 128 130 0
h 128 134 0
h 128 135 0
h 128 138 0
h 128 142 0
h 128 143 0
h 128 144 0
h 128 145 0
h 128 148 0
h 128 149 0
h 129 130 0
h 129 133 0
h 129 137 0
h 129 138 0
h 129 145 0
h 129 147 0
h 129 148 0
h 130 131 0
h 130 136 0
h 130 139 0
h 130 142 0
h 130 144 0
h 130 146 0
h 131 136 0
h 131 137 0
h 131 143 0
h 131 144 0
h 131 145 0
h 131 146 0
h 131 148 0
h 132 141 0
h 132 145 0
h 132 146 0
h 133 134 0
h 133 137 0
h 133 138 0
h 133 139 0
h 133 150 0
h 134 136 0
h 134 141 0
h 134 143 0
h 134 144 0
h 134 145 0
h 134 148 0
h 135 142 0
h 135 145 0
h 135 146 0
h 135 147 0
h 135 148 0
h 135 149 0
h 136 138 0
h 136 139 0
h 136 146 0
h 136 147 0
h 136 148 0
h 136 150 0
h 137 138 0
h 137 142 0
h 137 144 0
h 137 146 0
h 137 147 0
h 137 149 0
h 138 140 0
h 138 146 0
h 139 150 0
h 140 144 0
h 140 145 0
h 140 149 0
h 141 144 0
h 141 146 0
h 141 150 0
h 142 147 0
h 142 149 0
h 142 150 0
h 143 144 0
h 143 146 0
h 144 145 0
h 144 149 0
h 145 146 0
h 146 148 0
h 146 150 0
h 147 148 0
